# Solution for model F-JSSP-SDST
# Objective value = 923
B0(8) 1
B1(12) 0
B2(12) 0
B3(13) 1
B4(12) 1
B5(7) 0
B6(8) 0
B7(14) 1
B8(15) 1
B9(10) 0
B10(7) 0
B11(14) 1
B12(7) 0
B13(9) 1
B14(8) 1
B15(10) 0
B16(8) 0
B17(7) 1
B18(0) 0
B19(2) 0
B20(0) 0
B21(2) 0
B22(2) 0
B23(0) 0
B24(4) 0
B25(0) 0
B26(0) 0
B27(2) 0
B28(0) 0
B29(2) 0
B30(0) 0
B31(2) 0
B32(0) 0
B33(2) 1
B34(2) 0
B35(2) 0
B36(0) 0
B37(2) 0
B38(0) 0
B39(0) 0
B40(0) 0
B41(2) 0
B42(0) 0
B43(2) 1
B44(4) 0
B45(0) 0
B46(0) 0
B47(0) 0
B48(0) 0
B49(2) 0
B50(2) 0
B51(2) 0
B52(2) 0
B53(0) 0
B54(0) 0
B55(0) 0
B56(0) 0
B57(2) 1
B58(0) 0
B59(2) 0
B60(2) 0
B61(2) 0
B62(0) 0
B63(0) 0
B64(0) 0
B65(0) 0
B66(2) 1
B67(2) 1
B68(0) 0
B69(0) 0
B70(2) 0
B71(2) 0
B72(0) 0
B73(0) 0
B74(0) 0
B75(0) 0
B76(0) 0
B77(0) 0
B78(0) 0
B79(0) 0
B80(0) 0
B81(0) 0
B82(0) 0
B83(0) 0
B84(0) 0
B85(0) 0
B86(0) 0
B87(0) 0
B88(0) 0
B89(0) 0
B90(0) 0
B91(0) 0
B92(0) 0
B93(0) 0
B94(0) 0
B95(0) 0
B96(0) 0
B97(0) 0
B98(0) 0
I99(9) 0
I100(13) 0
I101(15) 0
I102(15) 117
I103(14) 247
I104(10) 0
I105(9) 0
I106(15) 0
I107(17) 160
I108(13) 0
I109(10) 0
I110(16) 229
I111(8) 0
I112(10) 0
I113(10) 62
I114(12) 0
I115(10) 0
I116(10) 132
I117(1) 923
